; benchmark generated from python API
(set-info :status unknown)
(declare-datatypes ((RealState 0)) (((RMk1 (rval1 Real)) (RMk2 (rval2 Real)))))
 (assert
 (forall ((|v11:0| Real) )(exists ((|v10:1_st| RealState) (val!2670 Real) )(forall ((|v9:2| Real) )(exists ((|v8:3_st| RealState) (val!2671 Real) )(forall ((|v7:4| Real) )(exists ((|v6:5_st| RealState) (val!2672 Real) )(forall ((|v5:6| Real) )(exists ((|v4:7_st| RealState) (val!2673 Real) )(forall ((|v3:8| Real) )(exists ((|v2:9_st| RealState) (val!2674 Real) )(forall ((|v1:10| Real) )(exists ((|v0:11_st| RealState) (val!2675 Real) )(let ((?x235 (* 18.0 |v9:2|)))
 (let ((?x1207 (+ (+ (+ (* 9.0 |v7:4|) (* (- 7.0) |v1:10|)) (* 18.0 (rval2 |v2:9_st|))) ?x235)))
 (let ((?x2766 (- 10.0)))
 (let ((?x1774 (* 9.0 |v5:6|)))
 (let ((?x1649 (+ (+ (* ?x2766 |v7:4|) (* (- 16.0) (rval2 |v0:11_st|))) (* (- 9.0) |v3:8|))))
 (let ((?x2205 (- 6.0)))
 (let ((?x2973 (* 3.0 |v1:10|)))
 (let ((?x714 (+ (+ (+ (* (- 8.0) (rval2 |v0:11_st|)) (* 16.0 (rval2 |v2:9_st|))) ?x2973) (* (- 14.0) |v7:4|))))
 (let ((?x1152 (rval2 |v10:1_st|)))
 (let ((?x908 (- 17.0)))
 (let ((?x1687 (* ?x908 ?x1152)))
 (let ((?x181 (+ (+ (* 15.0 |v7:4|) (* (- 15.0) ?x1152)) (* (- 2.0) (rval2 |v6:5_st|)))))
 (let (($x1983 (and (or (<= (+ ?x181 ?x1687) 14.0) (<= ?x714 ?x2205)) (and (<= (+ ?x1649 ?x1774) ?x2766) (<= ?x1207 19.0)))))
 (let ((?x1317 (* 2.0 |v1:10|)))
 (let ((?x2954 (+ (+ (+ (* 8.0 |v3:8|) (* 12.0 ?x1152)) (* 14.0 (rval2 |v4:7_st|))) ?x1317)))
 (let ((?x1985 (rval2 |v0:11_st|)))
 (let ((?x1737 (* 13.0 ?x1985)))
 (let ((?x2028 (+ (+ (+ (* (- 3.0) |v5:6|) (* (- 2.0) |v7:4|)) (* 5.0 |v9:2|)) ?x1737)))
 (let ((?x2356 (rval2 |v2:9_st|)))
 (let ((?x271 (- 20.0)))
 (let ((?x2746 (* ?x271 ?x2356)))
 (let ((?x3088 (* 8.0 ?x2356)))
 (let ((?x1616 (+ (+ (+ (* (- 12.0) (rval2 |v8:3_st|)) (* (- 3.0) ?x1985)) ?x3088) ?x2746)))
 (let ((?x1555 (- 16.0)))
 (let ((?x1123 (* ?x1555 ?x1152)))
 (let (($x3130 (<= (+ (+ (+ (* (- 3.0) |v3:8|) ?x1123) (* 9.0 ?x2356)) ?x1123) 7.0)))
 (let (($x1535 (and (and $x3130 (<= ?x1616 19.0)) (or (<= ?x2028 1.0) (<= ?x2954 1.0)))))
 (let ((?x2848 (- 8.0)))
 (let ((?x581 (rval2 |v8:3_st|)))
 (let ((?x1782 (- 12.0)))
 (let ((?x2264 (* ?x1782 ?x581)))
 (let ((?x1862 (+ (+ (+ (* 3.0 ?x1985) (* 10.0 |v1:10|)) (* (- 7.0) |v11:0|)) ?x2264)))
 (let ((?x2020 (* 15.0 ?x1152)))
 (let (($x2096 (<= (+ (+ (+ (* 0.0 ?x2356) (* 12.0 ?x2356)) (* ?x2848 |v11:0|)) ?x2020) 9.0)))
 (let ((?x325 (- 9.0)))
 (let ((?x716 (+ (+ (+ (* 12.0 ?x581) (* (- 13.0) |v9:2|)) (* ?x271 |v1:10|)) (* ?x1782 ?x1152))))
 (let ((?x968 (* ?x1555 ?x581)))
 (let ((?x499 (+ (+ (* 8.0 (rval2 |v4:7_st|)) (* 20.0 |v7:4|)) (* (- 7.0) (rval2 |v6:5_st|)))))
 (let (($x2289 (<= (+ (+ (+ (* ?x2766 |v11:0|) (* ?x1555 |v1:10|)) |v7:4|) (* (- 13.0) ?x581)) 0.0)))
 (let ((?x2350 (* 6.0 |v1:10|)))
 (let ((?x293 (+ (+ (+ (* 2.0 (rval2 |v4:7_st|)) (* 19.0 |v1:10|)) (* ?x271 |v5:6|)) ?x2350)))
 (let (($x2113 (or (<= ?x293 19.0) (or (and $x2289 (<= (+ ?x499 ?x968) ?x271)) (or (<= ?x716 ?x325) $x2096)))))
 (let ((?x1404 (- 2.0)))
 (let ((?x1072 (* 10.0 |v1:10|)))
 (let ((?x2781 (+ (+ (+ (* 16.0 ?x1152) (* (- 3.0) ?x581)) (* (- 15.0) ?x1152)) ?x1072)))
 (let ((?x1845 (- 14.0)))
 (let ((?x265 (+ (+ (+ (* (- 4.0) ?x581) (* ?x1782 |v1:10|)) (* 11.0 ?x1152)) (* ?x1404 (rval2 |v4:7_st|)))))
 (let ((?x1265 (- 5.0)))
 (let ((?x1655 (* 6.0 ?x1985)))
 (let (($x1534 (<= (+ (+ (+ (* 19.0 (rval2 |v4:7_st|)) (* 13.0 |v3:8|)) ?x2973) ?x1655) ?x1265)))
 (let ((?x2468 (+ (+ (+ (* 11.0 |v5:6|) (* ?x271 |v7:4|)) (* 2.0 (rval2 |v6:5_st|))) (* 20.0 |v5:6|))))
 (let ((?x347 (- 7.0)))
 (let ((?x2298 (+ (+ (+ (* 14.0 |v1:10|) (* (- 19.0) |v7:4|)) (* 8.0 |v9:2|)) (* (- 4.0) (rval2 |v6:5_st|)))))
 (let ((?x3032 (* 19.0 ?x581)))
 (let ((?x2911 (+ (+ (* ?x2848 (rval2 |v4:7_st|)) (* 18.0 |v3:8|)) (* (- 1.0) (rval2 |v6:5_st|)))))
 (let ((?x2607 (* 10.0 |v3:8|)))
 (let (($x986 (<= (+ (+ (+ ?x1123 (* (- 4.0) |v3:8|)) (* 10.0 |v7:4|)) ?x2607) ?x1782)))
 (let (($x2370 (or (and $x986 (<= (+ ?x2911 ?x3032) 8.0)) (and (<= ?x2298 ?x347) (<= ?x2468 10.0)))))
 (let (($x2816 (or (and (or $x2370 (and (and $x1534 (<= ?x265 ?x1845)) (<= ?x2781 ?x1404))) $x2113) (or (<= ?x1862 ?x2848) (or $x1535 $x1983)))))
 (let ((?x1434 (* ?x2205 |v3:8|)))
 (let ((?x3031 (+ (+ (+ (* ?x908 ?x581) (* (- 15.0) |v9:2|)) (* (- 18.0) |v11:0|)) ?x1434)))
 (let ((?x2741 (+ (+ (+ ?x3088 (* ?x908 |v5:6|)) (* (- 3.0) (rval2 |v6:5_st|))) (* (- 13.0) ?x1985))))
 (let ((?x534 (+ (+ (+ (* (- 11.0) ?x1985) (* (- 13.0) ?x1152)) (* 17.0 ?x2356)) (* (- 11.0) |v9:2|))))
 (let ((?x2686 (- 18.0)))
 (let ((?x834 (* 15.0 |v3:8|)))
 (let (($x3086 (<= (+ (+ (+ (* 5.0 (rval2 |v4:7_st|)) ?x968) (* (- 19.0) |v7:4|)) ?x834) ?x2686)))
 (let ((?x2449 (+ (+ (+ (* 7.0 ?x1152) (* 13.0 ?x2356)) (* ?x1265 |v5:6|)) (* ?x2766 |v9:2|))))
 (let (($x1797 (or (<= ?x2449 ?x2766) (<= (+ (+ (+ ?x2607 (* 2.0 |v3:8|)) ?x235) (* ?x1265 ?x1152)) ?x908))))
 (let ((?x2291 (+ (+ (+ (* ?x347 |v5:6|) (* (- 1.0) |v3:8|)) (* (- 4.0) |v9:2|)) (* 15.0 ?x2356))))
 (let ((?x214 (* ?x2848 ?x581)))
 (let ((?x685 (+ (+ (+ (* (- 1.0) |v9:2|) (* 11.0 |v11:0|)) (* (- 15.0) |v7:4|)) ?x214)))
 (let (($x787 (or (and (and (<= ?x685 ?x2848) (<= ?x2291 8.0)) $x1797) (or (and $x3086 (<= ?x534 11.0)) (or (<= ?x2741 ?x1265) (<= ?x3031 ?x2848))))))
 (let ((?x2625 (+ (+ (+ (* (- 3.0) ?x1152) (* 18.0 |v5:6|)) (* ?x271 |v7:4|)) (* ?x325 (rval2 |v6:5_st|)))))
 (let ((?x232 (* 5.0 |v5:6|)))
 (let (($x1731 (<= (+ (+ (+ ?x2746 (* 7.0 (rval2 |v4:7_st|))) (rval2 |v6:5_st|)) ?x232) 15.0)))
 (let ((?x2672 (- 1.0)))
 (let (($x682 (<= (+ (+ (+ ?x1317 (* ?x2686 |v3:8|)) (* ?x908 |v1:10|)) (* 11.0 |v9:2|)) ?x2672)))
 (let (($x617 (<= (+ (+ (+ ?x235 (* 17.0 ?x1985)) (* 16.0 |v9:2|)) (* 4.0 |v11:0|)) ?x908)))
 (let ((?x1467 (* 5.0 |v9:2|)))
 (let (($x1857 (<= (+ (+ (+ (* 15.0 |v7:4|) (* 3.0 ?x1985)) (* 8.0 |v1:10|)) ?x1467) 7.0)))
 (let (($x402 (or (or $x1857 (and (and $x617 $x682) (or $x1731 (<= ?x2625 5.0)))) $x787)))
 (let ((?x3112 (* 4.0 |v1:10|)))
 (let ((?x2509 (rval2 |v6:5_st|)))
 (let ((?x1784 (- 3.0)))
 (let ((?x2137 (* ?x1784 ?x2509)))
 (let (($x1715 (<= (+ (+ (+ (* ?x1845 |v3:8|) (* (- 19.0) (rval2 |v4:7_st|))) ?x2137) ?x3112) ?x1404)))
 (let ((?x3177 (+ (+ (+ (* 19.0 ?x2356) (* ?x2672 ?x581)) (* 8.0 |v3:8|)) (* ?x325 ?x581))))
 (let ((?x391 (* 9.0 ?x2509)))
 (let (($x2995 (<= (+ (+ (+ (* 4.0 (rval2 |v4:7_st|)) (* ?x908 ?x2356)) ?x1687) ?x391) 15.0)))
 (let ((?x793 (* ?x271 |v3:8|)))
 (let ((?x1522 (+ (+ (+ (* 14.0 (rval2 |v4:7_st|)) (* ?x1404 |v1:10|)) (* ?x1784 |v1:10|)) ?x793)))
 (let (($x1241 (and (<= ?x1522 ?x2848) (<= (+ (+ (+ ?x1687 (* 15.0 |v1:10|)) (* ?x2766 ?x2509)) ?x1737) 18.0))))
 (let ((?x484 (- 4.0)))
 (let ((?x1617 (* ?x484 ?x581)))
 (let (($x505 (<= (+ (+ (+ (* 19.0 |v11:0|) (* ?x1784 |v7:4|)) (* ?x271 |v11:0|)) ?x1617) 19.0)))
 (let ((?x2512 (+ (+ (+ (* (- 19.0) |v1:10|) (* 14.0 |v3:8|)) (* 9.0 ?x1152)) (* 0.0 |v3:8|))))
 (let (($x1019 (and (or (or (<= ?x2512 ?x1782) $x505) $x1241) (or (and $x2995 (<= ?x3177 13.0)) $x1715))))
 (let (($x1325 (<= (+ (+ (+ ?x1434 (* ?x1845 ?x1152)) (* 16.0 ?x1152)) (* 13.0 ?x2356)) ?x2672)))
 (let ((?x1399 (* 9.0 |v1:10|)))
 (let ((?x493 (+ (+ (+ (* 8.0 |v3:8|) (* 0.0 ?x1152)) (* ?x2766 (rval2 |v4:7_st|))) ?x1399)))
 (let ((?x2905 (- 15.0)))
 (let ((?x2694 (+ (+ (+ (* ?x1782 |v9:2|) (* ?x347 ?x1985)) (* (- 19.0) ?x1152)) (* ?x484 ?x1985))))
 (let ((?x2986 (+ (+ (+ (* 13.0 |v11:0|) (* ?x2205 |v1:10|)) (* ?x325 |v7:4|)) (* 6.0 |v11:0|))))
 (let (($x681 (<= (+ (+ (+ (* 12.0 |v3:8|) ?x214) (* 5.0 |v7:4|)) (* 2.0 |v11:0|)) 12.0)))
 (let ((?x2975 (- 19.0)))
 (let (($x83 (<= (+ (+ (+ ?x1774 (* ?x2848 ?x1985)) (* 4.0 |v5:6|)) (* 2.0 |v9:2|)) ?x2975)))
 (let (($x537 (<= (+ (+ (+ ?x235 (* ?x2686 ?x1985)) (* 11.0 |v1:10|)) (* 17.0 |v3:8|)) ?x1555)))
 (let (($x2583 (or (or (and $x537 $x83) (and $x681 (<= ?x2986 ?x484))) (or (and (<= ?x2694 ?x2905) (<= ?x493 13.0)) $x1325))))
 (let (($x1423 (not (= |v0:11_st| (RMk1 val!2675)))))
 (let (($x937 (not (= |v2:9_st| (RMk1 val!2674)))))
 (let (($x1277 (not (= |v4:7_st| (RMk1 val!2673)))))
 (let (($x1151 (not (= |v6:5_st| (RMk1 val!2672)))))
 (let (($x1011 (not (= |v8:3_st| (RMk1 val!2671)))))
 (let (($x439 (not (= |v10:1_st| (RMk1 val!2670)))))
 (and $x439 $x1011 $x1151 $x1277 $x937 $x1423 (or (and (or $x2583 $x1019) $x402) $x2816)))))))))))))))))))))))))))))))))))))))))))))))))))))))))))))))))))))))))))))))))))))))))))))))))))))))))))))))))))))
 )
 )
 )
 )
 )
 )
 )
 )
 )
 )
 )
 )
(check-sat)
